&control
 calculation = 'nscf'
 prefix = 'MgB2'
 outdir = './out'
 pseudo_dir = '/home/whzhang/work/packages/pseudo/ONCV_PBEsol'
 restart_mode = 'from_scratch'
 verbosity = 'high'
 tstress = .false.
 tprnfor = .false.
 disk_io = 'low'
/

&system
 ibrav = 0
 nat = 3
 ntyp = 2
 ecutwfc = 84.00
 ecutrho = 336.00
 occupations = 'smearing'
 smearing = 'mp'
 degauss = 0.001 ! Ry
 nbnd = 13
nosym = .true.
noinv = .true.
/

&electrons
/

ATOMIC_SPECIES
  B    10.81  B.upf
 Mg    24.30  Mg.upf

CELL_PARAMETERS angstrom
   3.07368002   0.00000000   0.00000000
  -1.53684001   2.66188498   0.00000000
   0.00000000   0.00000000   3.53435000

ATOMIC_POSITIONS crystal
Mg  0.00000000  0.00000000  0.00000000
 B  0.33333333  0.66666667  0.50000000
 B  0.66666667  0.33333333  0.50000000

K_POINTS crystal
320
   0.0000000000   0.0000000000   0.0000000000   0.00312500
   0.0000000000   0.0000000000   0.2000000000   0.00312500
   0.0000000000   0.0000000000   0.4000000000   0.00312500
   0.0000000000   0.0000000000   0.6000000000   0.00312500
   0.0000000000   0.0000000000   0.8000000000   0.00312500
   0.0000000000   0.1250000000   0.0000000000   0.00312500
   0.0000000000   0.1250000000   0.2000000000   0.00312500
   0.0000000000   0.1250000000   0.4000000000   0.00312500
   0.0000000000   0.1250000000   0.6000000000   0.00312500
   0.0000000000   0.1250000000   0.8000000000   0.00312500
   0.0000000000   0.2500000000   0.0000000000   0.00312500
   0.0000000000   0.2500000000   0.2000000000   0.00312500
   0.0000000000   0.2500000000   0.4000000000   0.00312500
   0.0000000000   0.2500000000   0.6000000000   0.00312500
   0.0000000000   0.2500000000   0.8000000000   0.00312500
   0.0000000000   0.3750000000   0.0000000000   0.00312500
   0.0000000000   0.3750000000   0.2000000000   0.00312500
   0.0000000000   0.3750000000   0.4000000000   0.00312500
   0.0000000000   0.3750000000   0.6000000000   0.00312500
   0.0000000000   0.3750000000   0.8000000000   0.00312500
   0.0000000000   0.5000000000   0.0000000000   0.00312500
   0.0000000000   0.5000000000   0.2000000000   0.00312500
   0.0000000000   0.5000000000   0.4000000000   0.00312500
   0.0000000000   0.5000000000   0.6000000000   0.00312500
   0.0000000000   0.5000000000   0.8000000000   0.00312500
   0.0000000000   0.6250000000   0.0000000000   0.00312500
   0.0000000000   0.6250000000   0.2000000000   0.00312500
   0.0000000000   0.6250000000   0.4000000000   0.00312500
   0.0000000000   0.6250000000   0.6000000000   0.00312500
   0.0000000000   0.6250000000   0.8000000000   0.00312500
   0.0000000000   0.7500000000   0.0000000000   0.00312500
   0.0000000000   0.7500000000   0.2000000000   0.00312500
   0.0000000000   0.7500000000   0.4000000000   0.00312500
   0.0000000000   0.7500000000   0.6000000000   0.00312500
   0.0000000000   0.7500000000   0.8000000000   0.00312500
   0.0000000000   0.8750000000   0.0000000000   0.00312500
   0.0000000000   0.8750000000   0.2000000000   0.00312500
   0.0000000000   0.8750000000   0.4000000000   0.00312500
   0.0000000000   0.8750000000   0.6000000000   0.00312500
   0.0000000000   0.8750000000   0.8000000000   0.00312500
   0.1250000000   0.0000000000   0.0000000000   0.00312500
   0.1250000000   0.0000000000   0.2000000000   0.00312500
   0.1250000000   0.0000000000   0.4000000000   0.00312500
   0.1250000000   0.0000000000   0.6000000000   0.00312500
   0.1250000000   0.0000000000   0.8000000000   0.00312500
   0.1250000000   0.1250000000   0.0000000000   0.00312500
   0.1250000000   0.1250000000   0.2000000000   0.00312500
   0.1250000000   0.1250000000   0.4000000000   0.00312500
   0.1250000000   0.1250000000   0.6000000000   0.00312500
   0.1250000000   0.1250000000   0.8000000000   0.00312500
   0.1250000000   0.2500000000   0.0000000000   0.00312500
   0.1250000000   0.2500000000   0.2000000000   0.00312500
   0.1250000000   0.2500000000   0.4000000000   0.00312500
   0.1250000000   0.2500000000   0.6000000000   0.00312500
   0.1250000000   0.2500000000   0.8000000000   0.00312500
   0.1250000000   0.3750000000   0.0000000000   0.00312500
   0.1250000000   0.3750000000   0.2000000000   0.00312500
   0.1250000000   0.3750000000   0.4000000000   0.00312500
   0.1250000000   0.3750000000   0.6000000000   0.00312500
   0.1250000000   0.3750000000   0.8000000000   0.00312500
   0.1250000000   0.5000000000   0.0000000000   0.00312500
   0.1250000000   0.5000000000   0.2000000000   0.00312500
   0.1250000000   0.5000000000   0.4000000000   0.00312500
   0.1250000000   0.5000000000   0.6000000000   0.00312500
   0.1250000000   0.5000000000   0.8000000000   0.00312500
   0.1250000000   0.6250000000   0.0000000000   0.00312500
   0.1250000000   0.6250000000   0.2000000000   0.00312500
   0.1250000000   0.6250000000   0.4000000000   0.00312500
   0.1250000000   0.6250000000   0.6000000000   0.00312500
   0.1250000000   0.6250000000   0.8000000000   0.00312500
   0.1250000000   0.7500000000   0.0000000000   0.00312500
   0.1250000000   0.7500000000   0.2000000000   0.00312500
   0.1250000000   0.7500000000   0.4000000000   0.00312500
   0.1250000000   0.7500000000   0.6000000000   0.00312500
   0.1250000000   0.7500000000   0.8000000000   0.00312500
   0.1250000000   0.8750000000   0.0000000000   0.00312500
   0.1250000000   0.8750000000   0.2000000000   0.00312500
   0.1250000000   0.8750000000   0.4000000000   0.00312500
   0.1250000000   0.8750000000   0.6000000000   0.00312500
   0.1250000000   0.8750000000   0.8000000000   0.00312500
   0.2500000000   0.0000000000   0.0000000000   0.00312500
   0.2500000000   0.0000000000   0.2000000000   0.00312500
   0.2500000000   0.0000000000   0.4000000000   0.00312500
   0.2500000000   0.0000000000   0.6000000000   0.00312500
   0.2500000000   0.0000000000   0.8000000000   0.00312500
   0.2500000000   0.1250000000   0.0000000000   0.00312500
   0.2500000000   0.1250000000   0.2000000000   0.00312500
   0.2500000000   0.1250000000   0.4000000000   0.00312500
   0.2500000000   0.1250000000   0.6000000000   0.00312500
   0.2500000000   0.1250000000   0.8000000000   0.00312500
   0.2500000000   0.2500000000   0.0000000000   0.00312500
   0.2500000000   0.2500000000   0.2000000000   0.00312500
   0.2500000000   0.2500000000   0.4000000000   0.00312500
   0.2500000000   0.2500000000   0.6000000000   0.00312500
   0.2500000000   0.2500000000   0.8000000000   0.00312500
   0.2500000000   0.3750000000   0.0000000000   0.00312500
   0.2500000000   0.3750000000   0.2000000000   0.00312500
   0.2500000000   0.3750000000   0.4000000000   0.00312500
   0.2500000000   0.3750000000   0.6000000000   0.00312500
   0.2500000000   0.3750000000   0.8000000000   0.00312500
   0.2500000000   0.5000000000   0.0000000000   0.00312500
   0.2500000000   0.5000000000   0.2000000000   0.00312500
   0.2500000000   0.5000000000   0.4000000000   0.00312500
   0.2500000000   0.5000000000   0.6000000000   0.00312500
   0.2500000000   0.5000000000   0.8000000000   0.00312500
   0.2500000000   0.6250000000   0.0000000000   0.00312500
   0.2500000000   0.6250000000   0.2000000000   0.00312500
   0.2500000000   0.6250000000   0.4000000000   0.00312500
   0.2500000000   0.6250000000   0.6000000000   0.00312500
   0.2500000000   0.6250000000   0.8000000000   0.00312500
   0.2500000000   0.7500000000   0.0000000000   0.00312500
   0.2500000000   0.7500000000   0.2000000000   0.00312500
   0.2500000000   0.7500000000   0.4000000000   0.00312500
   0.2500000000   0.7500000000   0.6000000000   0.00312500
   0.2500000000   0.7500000000   0.8000000000   0.00312500
   0.2500000000   0.8750000000   0.0000000000   0.00312500
   0.2500000000   0.8750000000   0.2000000000   0.00312500
   0.2500000000   0.8750000000   0.4000000000   0.00312500
   0.2500000000   0.8750000000   0.6000000000   0.00312500
   0.2500000000   0.8750000000   0.8000000000   0.00312500
   0.3750000000   0.0000000000   0.0000000000   0.00312500
   0.3750000000   0.0000000000   0.2000000000   0.00312500
   0.3750000000   0.0000000000   0.4000000000   0.00312500
   0.3750000000   0.0000000000   0.6000000000   0.00312500
   0.3750000000   0.0000000000   0.8000000000   0.00312500
   0.3750000000   0.1250000000   0.0000000000   0.00312500
   0.3750000000   0.1250000000   0.2000000000   0.00312500
   0.3750000000   0.1250000000   0.4000000000   0.00312500
   0.3750000000   0.1250000000   0.6000000000   0.00312500
   0.3750000000   0.1250000000   0.8000000000   0.00312500
   0.3750000000   0.2500000000   0.0000000000   0.00312500
   0.3750000000   0.2500000000   0.2000000000   0.00312500
   0.3750000000   0.2500000000   0.4000000000   0.00312500
   0.3750000000   0.2500000000   0.6000000000   0.00312500
   0.3750000000   0.2500000000   0.8000000000   0.00312500
   0.3750000000   0.3750000000   0.0000000000   0.00312500
   0.3750000000   0.3750000000   0.2000000000   0.00312500
   0.3750000000   0.3750000000   0.4000000000   0.00312500
   0.3750000000   0.3750000000   0.6000000000   0.00312500
   0.3750000000   0.3750000000   0.8000000000   0.00312500
   0.3750000000   0.5000000000   0.0000000000   0.00312500
   0.3750000000   0.5000000000   0.2000000000   0.00312500
   0.3750000000   0.5000000000   0.4000000000   0.00312500
   0.3750000000   0.5000000000   0.6000000000   0.00312500
   0.3750000000   0.5000000000   0.8000000000   0.00312500
   0.3750000000   0.6250000000   0.0000000000   0.00312500
   0.3750000000   0.6250000000   0.2000000000   0.00312500
   0.3750000000   0.6250000000   0.4000000000   0.00312500
   0.3750000000   0.6250000000   0.6000000000   0.00312500
   0.3750000000   0.6250000000   0.8000000000   0.00312500
   0.3750000000   0.7500000000   0.0000000000   0.00312500
   0.3750000000   0.7500000000   0.2000000000   0.00312500
   0.3750000000   0.7500000000   0.4000000000   0.00312500
   0.3750000000   0.7500000000   0.6000000000   0.00312500
   0.3750000000   0.7500000000   0.8000000000   0.00312500
   0.3750000000   0.8750000000   0.0000000000   0.00312500
   0.3750000000   0.8750000000   0.2000000000   0.00312500
   0.3750000000   0.8750000000   0.4000000000   0.00312500
   0.3750000000   0.8750000000   0.6000000000   0.00312500
   0.3750000000   0.8750000000   0.8000000000   0.00312500
   0.5000000000   0.0000000000   0.0000000000   0.00312500
   0.5000000000   0.0000000000   0.2000000000   0.00312500
   0.5000000000   0.0000000000   0.4000000000   0.00312500
   0.5000000000   0.0000000000   0.6000000000   0.00312500
   0.5000000000   0.0000000000   0.8000000000   0.00312500
   0.5000000000   0.1250000000   0.0000000000   0.00312500
   0.5000000000   0.1250000000   0.2000000000   0.00312500
   0.5000000000   0.1250000000   0.4000000000   0.00312500
   0.5000000000   0.1250000000   0.6000000000   0.00312500
   0.5000000000   0.1250000000   0.8000000000   0.00312500
   0.5000000000   0.2500000000   0.0000000000   0.00312500
   0.5000000000   0.2500000000   0.2000000000   0.00312500
   0.5000000000   0.2500000000   0.4000000000   0.00312500
   0.5000000000   0.2500000000   0.6000000000   0.00312500
   0.5000000000   0.2500000000   0.8000000000   0.00312500
   0.5000000000   0.3750000000   0.0000000000   0.00312500
   0.5000000000   0.3750000000   0.2000000000   0.00312500
   0.5000000000   0.3750000000   0.4000000000   0.00312500
   0.5000000000   0.3750000000   0.6000000000   0.00312500
   0.5000000000   0.3750000000   0.8000000000   0.00312500
   0.5000000000   0.5000000000   0.0000000000   0.00312500
   0.5000000000   0.5000000000   0.2000000000   0.00312500
   0.5000000000   0.5000000000   0.4000000000   0.00312500
   0.5000000000   0.5000000000   0.6000000000   0.00312500
   0.5000000000   0.5000000000   0.8000000000   0.00312500
   0.5000000000   0.6250000000   0.0000000000   0.00312500
   0.5000000000   0.6250000000   0.2000000000   0.00312500
   0.5000000000   0.6250000000   0.4000000000   0.00312500
   0.5000000000   0.6250000000   0.6000000000   0.00312500
   0.5000000000   0.6250000000   0.8000000000   0.00312500
   0.5000000000   0.7500000000   0.0000000000   0.00312500
   0.5000000000   0.7500000000   0.2000000000   0.00312500
   0.5000000000   0.7500000000   0.4000000000   0.00312500
   0.5000000000   0.7500000000   0.6000000000   0.00312500
   0.5000000000   0.7500000000   0.8000000000   0.00312500
   0.5000000000   0.8750000000   0.0000000000   0.00312500
   0.5000000000   0.8750000000   0.2000000000   0.00312500
   0.5000000000   0.8750000000   0.4000000000   0.00312500
   0.5000000000   0.8750000000   0.6000000000   0.00312500
   0.5000000000   0.8750000000   0.8000000000   0.00312500
   0.6250000000   0.0000000000   0.0000000000   0.00312500
   0.6250000000   0.0000000000   0.2000000000   0.00312500
   0.6250000000   0.0000000000   0.4000000000   0.00312500
   0.6250000000   0.0000000000   0.6000000000   0.00312500
   0.6250000000   0.0000000000   0.8000000000   0.00312500
   0.6250000000   0.1250000000   0.0000000000   0.00312500
   0.6250000000   0.1250000000   0.2000000000   0.00312500
   0.6250000000   0.1250000000   0.4000000000   0.00312500
   0.6250000000   0.1250000000   0.6000000000   0.00312500
   0.6250000000   0.1250000000   0.8000000000   0.00312500
   0.6250000000   0.2500000000   0.0000000000   0.00312500
   0.6250000000   0.2500000000   0.2000000000   0.00312500
   0.6250000000   0.2500000000   0.4000000000   0.00312500
   0.6250000000   0.2500000000   0.6000000000   0.00312500
   0.6250000000   0.2500000000   0.8000000000   0.00312500
   0.6250000000   0.3750000000   0.0000000000   0.00312500
   0.6250000000   0.3750000000   0.2000000000   0.00312500
   0.6250000000   0.3750000000   0.4000000000   0.00312500
   0.6250000000   0.3750000000   0.6000000000   0.00312500
   0.6250000000   0.3750000000   0.8000000000   0.00312500
   0.6250000000   0.5000000000   0.0000000000   0.00312500
   0.6250000000   0.5000000000   0.2000000000   0.00312500
   0.6250000000   0.5000000000   0.4000000000   0.00312500
   0.6250000000   0.5000000000   0.6000000000   0.00312500
   0.6250000000   0.5000000000   0.8000000000   0.00312500
   0.6250000000   0.6250000000   0.0000000000   0.00312500
   0.6250000000   0.6250000000   0.2000000000   0.00312500
   0.6250000000   0.6250000000   0.4000000000   0.00312500
   0.6250000000   0.6250000000   0.6000000000   0.00312500
   0.6250000000   0.6250000000   0.8000000000   0.00312500
   0.6250000000   0.7500000000   0.0000000000   0.00312500
   0.6250000000   0.7500000000   0.2000000000   0.00312500
   0.6250000000   0.7500000000   0.4000000000   0.00312500
   0.6250000000   0.7500000000   0.6000000000   0.00312500
   0.6250000000   0.7500000000   0.8000000000   0.00312500
   0.6250000000   0.8750000000   0.0000000000   0.00312500
   0.6250000000   0.8750000000   0.2000000000   0.00312500
   0.6250000000   0.8750000000   0.4000000000   0.00312500
   0.6250000000   0.8750000000   0.6000000000   0.00312500
   0.6250000000   0.8750000000   0.8000000000   0.00312500
   0.7500000000   0.0000000000   0.0000000000   0.00312500
   0.7500000000   0.0000000000   0.2000000000   0.00312500
   0.7500000000   0.0000000000   0.4000000000   0.00312500
   0.7500000000   0.0000000000   0.6000000000   0.00312500
   0.7500000000   0.0000000000   0.8000000000   0.00312500
   0.7500000000   0.1250000000   0.0000000000   0.00312500
   0.7500000000   0.1250000000   0.2000000000   0.00312500
   0.7500000000   0.1250000000   0.4000000000   0.00312500
   0.7500000000   0.1250000000   0.6000000000   0.00312500
   0.7500000000   0.1250000000   0.8000000000   0.00312500
   0.7500000000   0.2500000000   0.0000000000   0.00312500
   0.7500000000   0.2500000000   0.2000000000   0.00312500
   0.7500000000   0.2500000000   0.4000000000   0.00312500
   0.7500000000   0.2500000000   0.6000000000   0.00312500
   0.7500000000   0.2500000000   0.8000000000   0.00312500
   0.7500000000   0.3750000000   0.0000000000   0.00312500
   0.7500000000   0.3750000000   0.2000000000   0.00312500
   0.7500000000   0.3750000000   0.4000000000   0.00312500
   0.7500000000   0.3750000000   0.6000000000   0.00312500
   0.7500000000   0.3750000000   0.8000000000   0.00312500
   0.7500000000   0.5000000000   0.0000000000   0.00312500
   0.7500000000   0.5000000000   0.2000000000   0.00312500
   0.7500000000   0.5000000000   0.4000000000   0.00312500
   0.7500000000   0.5000000000   0.6000000000   0.00312500
   0.7500000000   0.5000000000   0.8000000000   0.00312500
   0.7500000000   0.6250000000   0.0000000000   0.00312500
   0.7500000000   0.6250000000   0.2000000000   0.00312500
   0.7500000000   0.6250000000   0.4000000000   0.00312500
   0.7500000000   0.6250000000   0.6000000000   0.00312500
   0.7500000000   0.6250000000   0.8000000000   0.00312500
   0.7500000000   0.7500000000   0.0000000000   0.00312500
   0.7500000000   0.7500000000   0.2000000000   0.00312500
   0.7500000000   0.7500000000   0.4000000000   0.00312500
   0.7500000000   0.7500000000   0.6000000000   0.00312500
   0.7500000000   0.7500000000   0.8000000000   0.00312500
   0.7500000000   0.8750000000   0.0000000000   0.00312500
   0.7500000000   0.8750000000   0.2000000000   0.00312500
   0.7500000000   0.8750000000   0.4000000000   0.00312500
   0.7500000000   0.8750000000   0.6000000000   0.00312500
   0.7500000000   0.8750000000   0.8000000000   0.00312500
   0.8750000000   0.0000000000   0.0000000000   0.00312500
   0.8750000000   0.0000000000   0.2000000000   0.00312500
   0.8750000000   0.0000000000   0.4000000000   0.00312500
   0.8750000000   0.0000000000   0.6000000000   0.00312500
   0.8750000000   0.0000000000   0.8000000000   0.00312500
   0.8750000000   0.1250000000   0.0000000000   0.00312500
   0.8750000000   0.1250000000   0.2000000000   0.00312500
   0.8750000000   0.1250000000   0.4000000000   0.00312500
   0.8750000000   0.1250000000   0.6000000000   0.00312500
   0.8750000000   0.1250000000   0.8000000000   0.00312500
   0.8750000000   0.2500000000   0.0000000000   0.00312500
   0.8750000000   0.2500000000   0.2000000000   0.00312500
   0.8750000000   0.2500000000   0.4000000000   0.00312500
   0.8750000000   0.2500000000   0.6000000000   0.00312500
   0.8750000000   0.2500000000   0.8000000000   0.00312500
   0.8750000000   0.3750000000   0.0000000000   0.00312500
   0.8750000000   0.3750000000   0.2000000000   0.00312500
   0.8750000000   0.3750000000   0.4000000000   0.00312500
   0.8750000000   0.3750000000   0.6000000000   0.00312500
   0.8750000000   0.3750000000   0.8000000000   0.00312500
   0.8750000000   0.5000000000   0.0000000000   0.00312500
   0.8750000000   0.5000000000   0.2000000000   0.00312500
   0.8750000000   0.5000000000   0.4000000000   0.00312500
   0.8750000000   0.5000000000   0.6000000000   0.00312500
   0.8750000000   0.5000000000   0.8000000000   0.00312500
   0.8750000000   0.6250000000   0.0000000000   0.00312500
   0.8750000000   0.6250000000   0.2000000000   0.00312500
   0.8750000000   0.6250000000   0.4000000000   0.00312500
   0.8750000000   0.6250000000   0.6000000000   0.00312500
   0.8750000000   0.6250000000   0.8000000000   0.00312500
   0.8750000000   0.7500000000   0.0000000000   0.00312500
   0.8750000000   0.7500000000   0.2000000000   0.00312500
   0.8750000000   0.7500000000   0.4000000000   0.00312500
   0.8750000000   0.7500000000   0.6000000000   0.00312500
   0.8750000000   0.7500000000   0.8000000000   0.00312500
   0.8750000000   0.8750000000   0.0000000000   0.00312500
   0.8750000000   0.8750000000   0.2000000000   0.00312500
   0.8750000000   0.8750000000   0.4000000000   0.00312500
   0.8750000000   0.8750000000   0.6000000000   0.00312500
   0.8750000000   0.8750000000   0.8000000000   0.00312500
