!--------
boltzwann = true
!boltz_calc_also_dos = true
!boltz_doc_energy_step = 0.01
!smr_type = gauss
!boltz_dos_smr_fixed_en_width = 0.005 

kmesh = 60 60 40
boltz_mu_min = tag1
boltz_mu_max = tag2
boltz_mu_step = 0.025

boltz_temp_min = 100
boltz_temp_max = 1000
boltz_temp_step = 50

boltz_relax_time = 1
!boltz_bandshift = false
!boltz_bandshift_firstband = tag4
!boltz_bandshift_energyshift = -0.06

!!---------------! wannierization
num_bands = 9
num_wann = 9
exclude_bands : 1-4
num_iter = 500 
dis_froz_max = tag

! restart = plot 
! write_hr = true 

bands_plot = true 
bands_plot_format = gnuplot 
bands_num_points = 50 
begin kpoint_path
    G  0.000000  0.000000  0.000000       M  0.500000  0.000000  0.000000
    M  0.500000  0.000000  0.000000       K  0.333333  0.333333  0.000000
    K  0.333333  0.333333  0.000000       G  0.000000  0.000000  0.000000
    G  0.000000  0.000000  0.000000       A  0.000000  0.000000  0.500000
    A  0.000000  0.000000  0.500000       L  0.500000  0.000000  0.500000
    L  0.500000  0.000000  0.500000       H  0.333333  0.333333  0.500000
    H  0.333333  0.333333  0.500000       A  0.000000  0.000000  0.500000
    L  0.500000  0.000000  0.500000       M  0.500000  0.000000  0.000000
    H  0.333333  0.333333  0.500000       K  0.333333  0.333333  0.000000
end kpoint_path

begin atoms_frac
Mg  0.00000000  0.00000000  0.00000000
 B  0.33333333  0.66666667  0.50000000
 B  0.66666667  0.33333333  0.50000000

end atoms_frac

begin projections
 B : l=0;l=1
Mg : l=0
end projections

begin unit_cell_cart
ang
   3.07368002   0.00000000   0.00000000
  -1.53684001   2.66188498   0.00000000
   0.00000000   0.00000000   3.53435000
end unit_cell_cart

mp_grid :   8  8  5

begin kpoints
   0.0000000000   0.0000000000   0.0000000000
   0.0000000000   0.0000000000   0.2000000000
   0.0000000000   0.0000000000   0.4000000000
   0.0000000000   0.0000000000   0.6000000000
   0.0000000000   0.0000000000   0.8000000000
   0.0000000000   0.1250000000   0.0000000000
   0.0000000000   0.1250000000   0.2000000000
   0.0000000000   0.1250000000   0.4000000000
   0.0000000000   0.1250000000   0.6000000000
   0.0000000000   0.1250000000   0.8000000000
   0.0000000000   0.2500000000   0.0000000000
   0.0000000000   0.2500000000   0.2000000000
   0.0000000000   0.2500000000   0.4000000000
   0.0000000000   0.2500000000   0.6000000000
   0.0000000000   0.2500000000   0.8000000000
   0.0000000000   0.3750000000   0.0000000000
   0.0000000000   0.3750000000   0.2000000000
   0.0000000000   0.3750000000   0.4000000000
   0.0000000000   0.3750000000   0.6000000000
   0.0000000000   0.3750000000   0.8000000000
   0.0000000000   0.5000000000   0.0000000000
   0.0000000000   0.5000000000   0.2000000000
   0.0000000000   0.5000000000   0.4000000000
   0.0000000000   0.5000000000   0.6000000000
   0.0000000000   0.5000000000   0.8000000000
   0.0000000000   0.6250000000   0.0000000000
   0.0000000000   0.6250000000   0.2000000000
   0.0000000000   0.6250000000   0.4000000000
   0.0000000000   0.6250000000   0.6000000000
   0.0000000000   0.6250000000   0.8000000000
   0.0000000000   0.7500000000   0.0000000000
   0.0000000000   0.7500000000   0.2000000000
   0.0000000000   0.7500000000   0.4000000000
   0.0000000000   0.7500000000   0.6000000000
   0.0000000000   0.7500000000   0.8000000000
   0.0000000000   0.8750000000   0.0000000000
   0.0000000000   0.8750000000   0.2000000000
   0.0000000000   0.8750000000   0.4000000000
   0.0000000000   0.8750000000   0.6000000000
   0.0000000000   0.8750000000   0.8000000000
   0.1250000000   0.0000000000   0.0000000000
   0.1250000000   0.0000000000   0.2000000000
   0.1250000000   0.0000000000   0.4000000000
   0.1250000000   0.0000000000   0.6000000000
   0.1250000000   0.0000000000   0.8000000000
   0.1250000000   0.1250000000   0.0000000000
   0.1250000000   0.1250000000   0.2000000000
   0.1250000000   0.1250000000   0.4000000000
   0.1250000000   0.1250000000   0.6000000000
   0.1250000000   0.1250000000   0.8000000000
   0.1250000000   0.2500000000   0.0000000000
   0.1250000000   0.2500000000   0.2000000000
   0.1250000000   0.2500000000   0.4000000000
   0.1250000000   0.2500000000   0.6000000000
   0.1250000000   0.2500000000   0.8000000000
   0.1250000000   0.3750000000   0.0000000000
   0.1250000000   0.3750000000   0.2000000000
   0.1250000000   0.3750000000   0.4000000000
   0.1250000000   0.3750000000   0.6000000000
   0.1250000000   0.3750000000   0.8000000000
   0.1250000000   0.5000000000   0.0000000000
   0.1250000000   0.5000000000   0.2000000000
   0.1250000000   0.5000000000   0.4000000000
   0.1250000000   0.5000000000   0.6000000000
   0.1250000000   0.5000000000   0.8000000000
   0.1250000000   0.6250000000   0.0000000000
   0.1250000000   0.6250000000   0.2000000000
   0.1250000000   0.6250000000   0.4000000000
   0.1250000000   0.6250000000   0.6000000000
   0.1250000000   0.6250000000   0.8000000000
   0.1250000000   0.7500000000   0.0000000000
   0.1250000000   0.7500000000   0.2000000000
   0.1250000000   0.7500000000   0.4000000000
   0.1250000000   0.7500000000   0.6000000000
   0.1250000000   0.7500000000   0.8000000000
   0.1250000000   0.8750000000   0.0000000000
   0.1250000000   0.8750000000   0.2000000000
   0.1250000000   0.8750000000   0.4000000000
   0.1250000000   0.8750000000   0.6000000000
   0.1250000000   0.8750000000   0.8000000000
   0.2500000000   0.0000000000   0.0000000000
   0.2500000000   0.0000000000   0.2000000000
   0.2500000000   0.0000000000   0.4000000000
   0.2500000000   0.0000000000   0.6000000000
   0.2500000000   0.0000000000   0.8000000000
   0.2500000000   0.1250000000   0.0000000000
   0.2500000000   0.1250000000   0.2000000000
   0.2500000000   0.1250000000   0.4000000000
   0.2500000000   0.1250000000   0.6000000000
   0.2500000000   0.1250000000   0.8000000000
   0.2500000000   0.2500000000   0.0000000000
   0.2500000000   0.2500000000   0.2000000000
   0.2500000000   0.2500000000   0.4000000000
   0.2500000000   0.2500000000   0.6000000000
   0.2500000000   0.2500000000   0.8000000000
   0.2500000000   0.3750000000   0.0000000000
   0.2500000000   0.3750000000   0.2000000000
   0.2500000000   0.3750000000   0.4000000000
   0.2500000000   0.3750000000   0.6000000000
   0.2500000000   0.3750000000   0.8000000000
   0.2500000000   0.5000000000   0.0000000000
   0.2500000000   0.5000000000   0.2000000000
   0.2500000000   0.5000000000   0.4000000000
   0.2500000000   0.5000000000   0.6000000000
   0.2500000000   0.5000000000   0.8000000000
   0.2500000000   0.6250000000   0.0000000000
   0.2500000000   0.6250000000   0.2000000000
   0.2500000000   0.6250000000   0.4000000000
   0.2500000000   0.6250000000   0.6000000000
   0.2500000000   0.6250000000   0.8000000000
   0.2500000000   0.7500000000   0.0000000000
   0.2500000000   0.7500000000   0.2000000000
   0.2500000000   0.7500000000   0.4000000000
   0.2500000000   0.7500000000   0.6000000000
   0.2500000000   0.7500000000   0.8000000000
   0.2500000000   0.8750000000   0.0000000000
   0.2500000000   0.8750000000   0.2000000000
   0.2500000000   0.8750000000   0.4000000000
   0.2500000000   0.8750000000   0.6000000000
   0.2500000000   0.8750000000   0.8000000000
   0.3750000000   0.0000000000   0.0000000000
   0.3750000000   0.0000000000   0.2000000000
   0.3750000000   0.0000000000   0.4000000000
   0.3750000000   0.0000000000   0.6000000000
   0.3750000000   0.0000000000   0.8000000000
   0.3750000000   0.1250000000   0.0000000000
   0.3750000000   0.1250000000   0.2000000000
   0.3750000000   0.1250000000   0.4000000000
   0.3750000000   0.1250000000   0.6000000000
   0.3750000000   0.1250000000   0.8000000000
   0.3750000000   0.2500000000   0.0000000000
   0.3750000000   0.2500000000   0.2000000000
   0.3750000000   0.2500000000   0.4000000000
   0.3750000000   0.2500000000   0.6000000000
   0.3750000000   0.2500000000   0.8000000000
   0.3750000000   0.3750000000   0.0000000000
   0.3750000000   0.3750000000   0.2000000000
   0.3750000000   0.3750000000   0.4000000000
   0.3750000000   0.3750000000   0.6000000000
   0.3750000000   0.3750000000   0.8000000000
   0.3750000000   0.5000000000   0.0000000000
   0.3750000000   0.5000000000   0.2000000000
   0.3750000000   0.5000000000   0.4000000000
   0.3750000000   0.5000000000   0.6000000000
   0.3750000000   0.5000000000   0.8000000000
   0.3750000000   0.6250000000   0.0000000000
   0.3750000000   0.6250000000   0.2000000000
   0.3750000000   0.6250000000   0.4000000000
   0.3750000000   0.6250000000   0.6000000000
   0.3750000000   0.6250000000   0.8000000000
   0.3750000000   0.7500000000   0.0000000000
   0.3750000000   0.7500000000   0.2000000000
   0.3750000000   0.7500000000   0.4000000000
   0.3750000000   0.7500000000   0.6000000000
   0.3750000000   0.7500000000   0.8000000000
   0.3750000000   0.8750000000   0.0000000000
   0.3750000000   0.8750000000   0.2000000000
   0.3750000000   0.8750000000   0.4000000000
   0.3750000000   0.8750000000   0.6000000000
   0.3750000000   0.8750000000   0.8000000000
   0.5000000000   0.0000000000   0.0000000000
   0.5000000000   0.0000000000   0.2000000000
   0.5000000000   0.0000000000   0.4000000000
   0.5000000000   0.0000000000   0.6000000000
   0.5000000000   0.0000000000   0.8000000000
   0.5000000000   0.1250000000   0.0000000000
   0.5000000000   0.1250000000   0.2000000000
   0.5000000000   0.1250000000   0.4000000000
   0.5000000000   0.1250000000   0.6000000000
   0.5000000000   0.1250000000   0.8000000000
   0.5000000000   0.2500000000   0.0000000000
   0.5000000000   0.2500000000   0.2000000000
   0.5000000000   0.2500000000   0.4000000000
   0.5000000000   0.2500000000   0.6000000000
   0.5000000000   0.2500000000   0.8000000000
   0.5000000000   0.3750000000   0.0000000000
   0.5000000000   0.3750000000   0.2000000000
   0.5000000000   0.3750000000   0.4000000000
   0.5000000000   0.3750000000   0.6000000000
   0.5000000000   0.3750000000   0.8000000000
   0.5000000000   0.5000000000   0.0000000000
   0.5000000000   0.5000000000   0.2000000000
   0.5000000000   0.5000000000   0.4000000000
   0.5000000000   0.5000000000   0.6000000000
   0.5000000000   0.5000000000   0.8000000000
   0.5000000000   0.6250000000   0.0000000000
   0.5000000000   0.6250000000   0.2000000000
   0.5000000000   0.6250000000   0.4000000000
   0.5000000000   0.6250000000   0.6000000000
   0.5000000000   0.6250000000   0.8000000000
   0.5000000000   0.7500000000   0.0000000000
   0.5000000000   0.7500000000   0.2000000000
   0.5000000000   0.7500000000   0.4000000000
   0.5000000000   0.7500000000   0.6000000000
   0.5000000000   0.7500000000   0.8000000000
   0.5000000000   0.8750000000   0.0000000000
   0.5000000000   0.8750000000   0.2000000000
   0.5000000000   0.8750000000   0.4000000000
   0.5000000000   0.8750000000   0.6000000000
   0.5000000000   0.8750000000   0.8000000000
   0.6250000000   0.0000000000   0.0000000000
   0.6250000000   0.0000000000   0.2000000000
   0.6250000000   0.0000000000   0.4000000000
   0.6250000000   0.0000000000   0.6000000000
   0.6250000000   0.0000000000   0.8000000000
   0.6250000000   0.1250000000   0.0000000000
   0.6250000000   0.1250000000   0.2000000000
   0.6250000000   0.1250000000   0.4000000000
   0.6250000000   0.1250000000   0.6000000000
   0.6250000000   0.1250000000   0.8000000000
   0.6250000000   0.2500000000   0.0000000000
   0.6250000000   0.2500000000   0.2000000000
   0.6250000000   0.2500000000   0.4000000000
   0.6250000000   0.2500000000   0.6000000000
   0.6250000000   0.2500000000   0.8000000000
   0.6250000000   0.3750000000   0.0000000000
   0.6250000000   0.3750000000   0.2000000000
   0.6250000000   0.3750000000   0.4000000000
   0.6250000000   0.3750000000   0.6000000000
   0.6250000000   0.3750000000   0.8000000000
   0.6250000000   0.5000000000   0.0000000000
   0.6250000000   0.5000000000   0.2000000000
   0.6250000000   0.5000000000   0.4000000000
   0.6250000000   0.5000000000   0.6000000000
   0.6250000000   0.5000000000   0.8000000000
   0.6250000000   0.6250000000   0.0000000000
   0.6250000000   0.6250000000   0.2000000000
   0.6250000000   0.6250000000   0.4000000000
   0.6250000000   0.6250000000   0.6000000000
   0.6250000000   0.6250000000   0.8000000000
   0.6250000000   0.7500000000   0.0000000000
   0.6250000000   0.7500000000   0.2000000000
   0.6250000000   0.7500000000   0.4000000000
   0.6250000000   0.7500000000   0.6000000000
   0.6250000000   0.7500000000   0.8000000000
   0.6250000000   0.8750000000   0.0000000000
   0.6250000000   0.8750000000   0.2000000000
   0.6250000000   0.8750000000   0.4000000000
   0.6250000000   0.8750000000   0.6000000000
   0.6250000000   0.8750000000   0.8000000000
   0.7500000000   0.0000000000   0.0000000000
   0.7500000000   0.0000000000   0.2000000000
   0.7500000000   0.0000000000   0.4000000000
   0.7500000000   0.0000000000   0.6000000000
   0.7500000000   0.0000000000   0.8000000000
   0.7500000000   0.1250000000   0.0000000000
   0.7500000000   0.1250000000   0.2000000000
   0.7500000000   0.1250000000   0.4000000000
   0.7500000000   0.1250000000   0.6000000000
   0.7500000000   0.1250000000   0.8000000000
   0.7500000000   0.2500000000   0.0000000000
   0.7500000000   0.2500000000   0.2000000000
   0.7500000000   0.2500000000   0.4000000000
   0.7500000000   0.2500000000   0.6000000000
   0.7500000000   0.2500000000   0.8000000000
   0.7500000000   0.3750000000   0.0000000000
   0.7500000000   0.3750000000   0.2000000000
   0.7500000000   0.3750000000   0.4000000000
   0.7500000000   0.3750000000   0.6000000000
   0.7500000000   0.3750000000   0.8000000000
   0.7500000000   0.5000000000   0.0000000000
   0.7500000000   0.5000000000   0.2000000000
   0.7500000000   0.5000000000   0.4000000000
   0.7500000000   0.5000000000   0.6000000000
   0.7500000000   0.5000000000   0.8000000000
   0.7500000000   0.6250000000   0.0000000000
   0.7500000000   0.6250000000   0.2000000000
   0.7500000000   0.6250000000   0.4000000000
   0.7500000000   0.6250000000   0.6000000000
   0.7500000000   0.6250000000   0.8000000000
   0.7500000000   0.7500000000   0.0000000000
   0.7500000000   0.7500000000   0.2000000000
   0.7500000000   0.7500000000   0.4000000000
   0.7500000000   0.7500000000   0.6000000000
   0.7500000000   0.7500000000   0.8000000000
   0.7500000000   0.8750000000   0.0000000000
   0.7500000000   0.8750000000   0.2000000000
   0.7500000000   0.8750000000   0.4000000000
   0.7500000000   0.8750000000   0.6000000000
   0.7500000000   0.8750000000   0.8000000000
   0.8750000000   0.0000000000   0.0000000000
   0.8750000000   0.0000000000   0.2000000000
   0.8750000000   0.0000000000   0.4000000000
   0.8750000000   0.0000000000   0.6000000000
   0.8750000000   0.0000000000   0.8000000000
   0.8750000000   0.1250000000   0.0000000000
   0.8750000000   0.1250000000   0.2000000000
   0.8750000000   0.1250000000   0.4000000000
   0.8750000000   0.1250000000   0.6000000000
   0.8750000000   0.1250000000   0.8000000000
   0.8750000000   0.2500000000   0.0000000000
   0.8750000000   0.2500000000   0.2000000000
   0.8750000000   0.2500000000   0.4000000000
   0.8750000000   0.2500000000   0.6000000000
   0.8750000000   0.2500000000   0.8000000000
   0.8750000000   0.3750000000   0.0000000000
   0.8750000000   0.3750000000   0.2000000000
   0.8750000000   0.3750000000   0.4000000000
   0.8750000000   0.3750000000   0.6000000000
   0.8750000000   0.3750000000   0.8000000000
   0.8750000000   0.5000000000   0.0000000000
   0.8750000000   0.5000000000   0.2000000000
   0.8750000000   0.5000000000   0.4000000000
   0.8750000000   0.5000000000   0.6000000000
   0.8750000000   0.5000000000   0.8000000000
   0.8750000000   0.6250000000   0.0000000000
   0.8750000000   0.6250000000   0.2000000000
   0.8750000000   0.6250000000   0.4000000000
   0.8750000000   0.6250000000   0.6000000000
   0.8750000000   0.6250000000   0.8000000000
   0.8750000000   0.7500000000   0.0000000000
   0.8750000000   0.7500000000   0.2000000000
   0.8750000000   0.7500000000   0.4000000000
   0.8750000000   0.7500000000   0.6000000000
   0.8750000000   0.7500000000   0.8000000000
   0.8750000000   0.8750000000   0.0000000000
   0.8750000000   0.8750000000   0.2000000000
   0.8750000000   0.8750000000   0.4000000000
   0.8750000000   0.8750000000   0.6000000000
   0.8750000000   0.8750000000   0.8000000000
end kpoints
