&inputpp
  outdir = './out'
  prefix = 'MgB2'
  seedname = 'MgB2'
  spin_component = 'none'
  write_mmn = .true.
  write_amn = .true.
  write_unk = .false.
  reduce_unk= .true.
  wan_mode = 'standalone'
/
